unsat
(:added-eqs                   2488
 :arith-eq-adapter            55
 :arith-bound-propagations-lp 1965
 :arith-branch                854
 :arith-conflicts             1158
 :arith-cube-calls            388
 :arith-diseq                 1420
 :arith-fixed-eqs             975
 :arith-gcd-calls             1592
 :arith-gcd-conflict          28
 :arith-gomory-cuts           1218
 :arith-hnf-calls             8
 :arith-lower                 26468
 :arith-make-feasible         10362
 :arith-max-columns           101
 :arith-max-rows              56
 :arith-nla-propagate-bounds  4
 :arith-offset-eqs            238
 :arith-patches               1564
 :arith-patches-success       3
 :arith-upper                 30086
 :binary-propagations         37682
 :conflicts                   1178
 :decisions                   5979
 :del-clause                  2181
 :final-checks                1593
 :max-memory                  19.70
 :memory                      17.62
 :minimized-lits              79
 :mk-bool-var                 2703
 :mk-clause                   2574
 :mk-clause-binary            1675
 :num-allocs                  218329266
 :num-checks                  1
 :propagations                49261
 :restarts                    10
 :rlimit-count                428923
 :time                        0.73
 :total-time                  0.73)
